unsat
(:eliminated-applications 525
 :eliminated-vars         2023
 :max-memory              25.96
 :memory                  21.90
 :nlsat-conflicts         1273
 :nlsat-decisions         8396
 :nlsat-propagations      48461
 :nlsat-stages            22340
 :num-allocs              40191059
 :rlimit-count            1816640
 :time                    0.47
 :total-time              0.53)
